33D32945 STP File, STP Format Version 1.0

SECTION Comments
Name "edge_n15_d3_s38"
Problem "Euclidean Steiner Tree Problem"
Remark "Generated with STPGenerator. 3 dimensions."
END

SECTION Graph
Nodes 15
END

SECTION Coordinates
DDD 0 0.5982263575 0.5982263575 0.5982263575
DDD 1 0.1752538104 0.1752538104 0.1752538104
DDD 2 0.4766825421 0.4766825421 0.4766825421
DDD 3 0.1399146664 0.1399146664 0.1399146664
DDD 4 0.4673976025 0.4673976025 0.4673976025
DDD 5 0.8627957766 0.8627957766 0.8627957766
DDD 6 0.6898134000 0.6898134000 0.6898134000
DDD 7 0.1803749400 0.1803749400 0.1803749400
DDD 8 0.5748512617 0.5748512617 0.5748512617
DDD 9 0.1829102199 0.1829102199 0.1829102199
DDD 10 0.3235021184 0.3235021184 0.3235021184
DDD 11 0.6120159149 0.6120159149 0.6120159149
DDD 12 0.7084588719 0.7084588719 0.7084588719
DDD 13 0.4244470016 0.4244470016 0.4244470016
DDD 14 0.6334648415 0.6334648415 0.6334648415
END
